header                                  
   1.00000000000000     
     5.6399999999999997    0.0000000000000000    0.0000000000000000
     0.0000000000000000    5.6399999999999997    0.0000000000000000
     0.0000000000000000    0.0000000000000000   15.0000000000000000
   Fe
    12
Selective dynamics
Direct
  0.0000000000000000  0.0000000000000000  0.0000000000000000   F   F   F
  0.5000000000000000  0.0000000000000000  0.0000000000000000   F   F   F
  0.0000000000000000  0.5000000000000000  0.0000000000000000   F   F   F
  0.5000000000000000  0.5000000000000000  0.0000000000000000   F   F   F
  0.2500000000000000  0.2500000000000000  0.0940000000000012   F   F   F
  0.7500000000000000  0.2500000000000000  0.0940000000000012   F   F   F
  0.2500000000000000  0.7500000000000000  0.0940000000000012   F   F   F
  0.7500000000000000  0.7500000000000000  0.0940000000000012   F   F   F
  0.0000000000000000 -0.0000000000000000  0.1872749537778944   T   T   T
  0.5000000000000000  0.0000000000000000  0.1872749537778944   T   T   T
  0.0000000000000000  0.5000000000000000  0.1872749537778944   T   T   T
  0.5000000000000000  0.5000000000000000  0.1872749537778944   T   T   T
 
  0.00000000E+00  0.00000000E+00  0.00000000E+00
  0.00000000E+00  0.00000000E+00  0.00000000E+00
  0.00000000E+00  0.00000000E+00  0.00000000E+00
  0.00000000E+00  0.00000000E+00  0.00000000E+00
  0.00000000E+00  0.00000000E+00  0.00000000E+00
  0.00000000E+00  0.00000000E+00  0.00000000E+00
  0.00000000E+00  0.00000000E+00  0.00000000E+00
  0.00000000E+00  0.00000000E+00  0.00000000E+00
  0.00000000E+00  0.00000000E+00  0.00000000E+00
  0.00000000E+00  0.00000000E+00  0.00000000E+00
  0.00000000E+00  0.00000000E+00  0.00000000E+00
  0.00000000E+00  0.00000000E+00  0.00000000E+00
