header                                     
1.0                                    
2.82084 0.0 0.0  ! lattice vector  a(1)(angstrem)
0.0 2.82084 0.0  ! lattice vector  a(2)(>10 to interaction)
0.0 0.0 19.0521  ! lattice vector  a(3)                                         
Fe
6
selective dynamic
cart        
0.00000000    0.00000000    0.0000000 F F F	
1.41042       1.41042       1.41042   F F F
0.00000000    0.00000000    2.82084   T T T
1.41042       1.41042       4.23126   T T T
0.00000000    0.00000000    5.64168   T T T
1.41042       1.41042       7.0521    T T T