header                                  
   1.00000000000000     
     3.9865121700000001    0.0000000000000000    0.0000000000000000
     0.0000000000000000    2.8188897900000001    0.0000000000000000
     0.0000000000000000    0.0000000000000000   19.0472244699999997
   Fe
     6
Selective dynamics
Direct
  0.0000000000000000  0.0000000000000000  0.0000000000000000   F   F   F
  0.3535533895033893  0.4999999982262509  0.0739973896049761   F   F   F
 -0.1410223964986064  0.0000000000000000  0.1360149972754392   T   T   T
  0.3738196803725240  0.4999999982262509  0.1978075905768205   T   T   T
 -0.1413328946318106  0.0000000000000000  0.2691751588572072   T   T   T
  0.3392661126128109  0.4999999982262509  0.3224594591014313   T   T   T
 
  0.00000000E+00  0.00000000E+00  0.00000000E+00
  0.00000000E+00  0.00000000E+00  0.00000000E+00
  0.00000000E+00  0.00000000E+00  0.00000000E+00
  0.00000000E+00  0.00000000E+00  0.00000000E+00
  0.00000000E+00  0.00000000E+00  0.00000000E+00
  0.00000000E+00  0.00000000E+00  0.00000000E+00
