header                                     
1.0                                    
3.98651217 0.0 0.0  ! lattice vector  a(1)(angstrem)
0.0 2.81888979 0.0  ! lattice vector  a(2)(>10 to interaction)
0.0 0.0 19.04722447  ! lattice vector  a(3)                                         
Fe
6
selective dynamic
cart        
0.00000000    0.00000000    0.0000000 F F F	
1.40944489       1.40944489       1.40944489   F F F
0.00000000    0.00000000    2.81888979   T T T
1.40944489       1.40944489       4.22833468   T T T
0.00000000    0.00000000    5.63777958   T T T
1.40944489       1.40944489       7.04722447    T T T