header                                     
1.0                                    
1.41 2.442 0.0  ! lattice vector  a(1)(angstrem)
-1.41 2.442 0.0  ! lattice vector  a(2)(>10 to interaction)
0.0 0.0 20  ! lattice vector  a(3)                                         
Fe
6
selective dynamic
cart        
0.0 0.0 0.0 F F F
0.0 1.994041122946064 1.994041122946064 F F F
0.0 3.988082245892128 3.988082245892128 T T T
0.0 5.982123368838192 5.982123368838192 T T T
0.0 7.976164491784256 7.976164491784256 T T T
0.0 9.97020561473032 9.97020561473032 T T T