header                                     
1.0                                    
3.98651217 0.0 0.0  ! lattice vector  a(1)(angstrem)
0.0 2.81888979 0.0  ! lattice vector  a(2)(>10 to interaction)
0.0 0.0 21.96628042  ! lattice vector  a(3)                                         
Fe
12
selective dynamic
cart        
0.00000000    0.00000000    0.00000000   F F F
1.99325608    1.40944489    0.00000000   F F F
1.99325608    0.00000000    1.99325608   F F F
0.00000000    1.40944489    1.99325608   F F F
0.00000000    0.00000000    3.98651217   T T T
1.99325608    1.40944489    3.98651217   T T T
1.99325608    0.00000000    5.97976825   T T T
0.00000000    1.40944489    5.97976825   T T T
0.00000000    0.00000000    7.97302434   T T T
1.99325608    1.40944489    7.97302434   T T T
1.99325608    0.00000000    9.96628042   T T T
0.00000000    1.40944489    9.96628042   T T T