header                                     
 2.84                                    
1.000000    0.000000    0.000000
0.000000    1.000000    0.000000
0.000000    0.000000    1.000000                                          
Fe
 2
Direct        
0.00000000    0.00000000    0.0000000 	
0.50000000    0.50000000    0.5000000 	
	