Nb2                                     
   1.00000000000000     
     3.3267658762334782    0.0000000000000000    0.0000000000000002
     0.0000000000000005    3.3267658762334782    0.0000000000000002
    -0.0000000000000000   -0.0000000000000000    3.3267658762334782
   Nb
     2
Selective dynamics
Direct
 -0.0000000000000000 -0.0000000000000000 -0.0000000000000000   T   T   T
  0.5000000000000000  0.5000000000000000  0.5000000000000000   T   T   T
 
  0.00000000E+00  0.00000000E+00  0.00000000E+00
  0.00000000E+00  0.00000000E+00  0.00000000E+00
