Nb2
1.0
   3.3205200000000001    0.0000000000000000    0.0000000000000002
   0.0000000000000005    3.3205200000000001    0.0000000000000002
   0.0000000000000000    0.0000000000000000    3.3205200000000001
Nb
2
Selective dynamics
direct
   0.0000000000000000    0.0000000000000000    0.0000000000000000 T T T
   0.5000000000000000    0.5000000000000000    0.5000000000000000 T T T
