header                                  
   1.00000000000000     
     3.9865121700000001    0.0000000000000000    0.0000000000000000
     0.0000000000000000    2.8188897900000001    0.0000000000000000
     0.0000000000000000    0.0000000000000000   21.9662804200000004
   Fe
    12
Selective dynamics
Direct
  0.0000000000000000  0.0000000000000000  0.0000000000000000   F   F   F
  0.4999999987457713  0.4999999982262509  0.0000000000000000   F   F   F
  0.4999999987457713  0.0000000000000000  0.0907416295289210   F   F   F
  0.0000000000000000  0.4999999982262509  0.0907416295289210   F   F   F
  0.0000000000000000  0.0000000000000000  0.1815912959827576   T   T   T
  0.4999999987457713  0.4999999982262509  0.1815912959827576   T   T   T
  0.4999999987457713  0.0000000000000000  0.2708701335288270   T   T   T
  0.0000000000000000  0.4999999982262509  0.2708701335288270   T   T   T
  0.0000000000000000  0.0000000000000000  0.3614804294850787   T   T   T
  0.4999999987457713  0.4999999982262509  0.3614804294850787   T   T   T
  0.4999999987457713  0.0000000000000000  0.4515349206556666   T   T   T
  0.0000000000000000  0.4999999982262509  0.4515349206556666   T   T   T
 
  0.00000000E+00  0.00000000E+00  0.00000000E+00
  0.00000000E+00  0.00000000E+00  0.00000000E+00
  0.00000000E+00  0.00000000E+00  0.00000000E+00
  0.00000000E+00  0.00000000E+00  0.00000000E+00
  0.00000000E+00  0.00000000E+00  0.00000000E+00
  0.00000000E+00  0.00000000E+00  0.00000000E+00
  0.00000000E+00  0.00000000E+00  0.00000000E+00
  0.00000000E+00  0.00000000E+00  0.00000000E+00
  0.00000000E+00  0.00000000E+00  0.00000000E+00
  0.00000000E+00  0.00000000E+00  0.00000000E+00
  0.00000000E+00  0.00000000E+00  0.00000000E+00
  0.00000000E+00  0.00000000E+00  0.00000000E+00
