Nb4 O10                                 
   1.00000000000000     
     0.0000000000000000   13.0930700000000009    0.0000000000000000
     3.8727299999999998    0.0000000000000000    0.0000000000000000
     0.0000000000000000   -0.0536200000000003   -4.0605920000000015
   Nb   O 
     4    10
Selective dynamics
Direct
  0.8538736967116621  0.0000000000000000  0.9328897444769962   T   T   T
  0.6461263032883379  0.5000000000000000  0.0671102555230035   T   T   T
  0.3538736967116621  0.5000000000000000  0.9328897444769962   T   T   T
  0.1461263032883380  0.0000000000000000  0.0671102555230035   T   T   T
  0.8519057784306278  0.0000000000000000  0.4897694918028979   T   T   T
  0.6480942215693722  0.5000000000000000  0.5102305081971020   T   T   T
  0.0000000000000000  0.0000000000000000 -0.0000000000000000   T   T   T
  0.6850226803780879 -0.0000000000000000  0.0040454285543211   T   T   T
  0.8149773196219121  0.5000000000000000  0.9959545714456790   T   T   T
  0.3519057784306279  0.5000000000000000  0.4897694918028979   T   T   T
  0.1480942215693721 -0.0000000000000000  0.5102305081971020   T   T   T
  0.5000000000000000  0.5000000000000000 -0.0000000000000000   T   T   T
  0.1850226803780879  0.5000000000000000  0.0040454285543211   T   T   T
  0.3149773196219121 -0.0000000000000000  0.9959545714456790   T   T   T
 
  0.00000000E+00  0.00000000E+00  0.00000000E+00
  0.00000000E+00  0.00000000E+00  0.00000000E+00
  0.00000000E+00  0.00000000E+00  0.00000000E+00
  0.00000000E+00  0.00000000E+00  0.00000000E+00
  0.00000000E+00  0.00000000E+00  0.00000000E+00
  0.00000000E+00  0.00000000E+00  0.00000000E+00
  0.00000000E+00  0.00000000E+00  0.00000000E+00
  0.00000000E+00  0.00000000E+00  0.00000000E+00
  0.00000000E+00  0.00000000E+00  0.00000000E+00
  0.00000000E+00  0.00000000E+00  0.00000000E+00
  0.00000000E+00  0.00000000E+00  0.00000000E+00
  0.00000000E+00  0.00000000E+00  0.00000000E+00
  0.00000000E+00  0.00000000E+00  0.00000000E+00
  0.00000000E+00  0.00000000E+00  0.00000000E+00
