Nb4 O10
1.0
   0.0000000000000000   13.0930700000000009    0.0000000000000000
   3.8727299999999998    0.0000000000000000    0.0000000000000000
   0.0000000000000000   -0.0536200000000003   -4.0605920000000015
Nb O
4 10
Selective dynamics
Direct
   0.8538399999999999    0.0000000000000000    0.9327839999999999 T T T
   0.6461600000000001    0.5000000000000000    0.0672160000000001 T T T
   0.3538399999999999    0.5000000000000000    0.9327839999999999 T T T
   0.1461600000000001    0.0000000000000000    0.0672160000000001 T T T
   0.8524170000000000    0.0000000000000000    0.4893660000000000 T T T
   0.6475830000000000    0.5000000000000000    0.5106340000000000 T T T
   0.0000000000000000    0.0000000000000000    0.0000000000000000 T T T
   0.6850330000000000    0.0000000000000000    0.0030850000000000 T T T
   0.8149670000000000    0.5000000000000000    0.9969150000000000 T T T
   0.3524170000000000    0.5000000000000000    0.4893660000000000 T T T
   0.1475830000000000    0.0000000000000000    0.5106340000000000 T T T
   0.5000000000000000    0.5000000000000000    0.0000000000000000 T T T
   0.1850330000000000    0.5000000000000000    0.0030850000000000 T T T
   0.3149670000000000    0.0000000000000000    0.9969150000000000 T T T
