Li6 Nb6 O18                             
   1.00000000000000     
     2.5309222372053135   -4.3836859048454926    0.0000000000000000
     2.5309222372053135    4.3836859048454926   -0.0000000000000000
     0.0000000000000000   -0.0000000000000000   13.7527123269237883
   Li   Nb   O 
     6     6    18
Direct
  0.6666666666666643  0.3333333333333357  0.0490353839622351
  0.0000000000000000  0.0000000000000000  0.2157020506288994
  0.3333333333333357  0.6666666666666643  0.3823687172955637
  0.6666666666666643  0.3333333333333357  0.5490353839622352
  0.0000000000000000  0.0000000000000000  0.7157020506288995
  0.3333333333333357  0.6666666666666643  0.8823687172955638
  0.6666666666666643  0.3333333333333357  0.3331343221386895
  0.3333333333333357  0.6666666666666643  0.1664676554720251
  0.3333333333333357  0.6666666666666643  0.6664676554720251
  0.0000000000000000  0.0000000000000000  0.4998009888053608
  0.0000000000000000  0.0000000000000000 -0.0001990111946393
  0.6666666666666643  0.3333333333333357  0.8331343221386894
  0.6341475328991413  0.9849188726732393  0.2702989868552498
  0.0150811273267607  0.6492286602259019  0.2702989868552498
  0.3507713397740979  0.3658524671008587  0.2702989868552498
  0.0174380064407623  0.3182522060065748  0.1036323201885784
  0.6817477939934250  0.6991858004341944  0.1036323201885784
  0.3008141995658056  0.9825619935592376  0.1036323201885784
  0.3008141995658056  0.3182522060065748  0.6036323201885785
  0.6817477939934250  0.9825619935592376  0.6036323201885785
  0.0174380064407623  0.6991858004341944  0.6036323201885785
  0.6841046731074338  0.6515855393399036  0.4369656535219141
  0.3484144606600966  0.0325191337675231  0.4369656535219141
  0.9674808662324770  0.3158953268925664  0.4369656535219141
  0.9674808662324770  0.6515855393399036  0.9369656535219142
  0.3484144606600966  0.3158953268925664  0.9369656535219142
  0.6841046731074338  0.0325191337675231  0.9369656535219142
  0.3507713397740979  0.9849188726732393  0.7702989868552499
  0.0150811273267607  0.3658524671008587  0.7702989868552499
  0.6341475328991413  0.6492286602259019  0.7702989868552499
 
  0.00000000E+00  0.00000000E+00  0.00000000E+00
  0.00000000E+00  0.00000000E+00  0.00000000E+00
  0.00000000E+00  0.00000000E+00  0.00000000E+00
  0.00000000E+00  0.00000000E+00  0.00000000E+00
  0.00000000E+00  0.00000000E+00  0.00000000E+00
  0.00000000E+00  0.00000000E+00  0.00000000E+00
  0.00000000E+00  0.00000000E+00  0.00000000E+00
  0.00000000E+00  0.00000000E+00  0.00000000E+00
  0.00000000E+00  0.00000000E+00  0.00000000E+00
  0.00000000E+00  0.00000000E+00  0.00000000E+00
  0.00000000E+00  0.00000000E+00  0.00000000E+00
  0.00000000E+00  0.00000000E+00  0.00000000E+00
  0.00000000E+00  0.00000000E+00  0.00000000E+00
  0.00000000E+00  0.00000000E+00  0.00000000E+00
  0.00000000E+00  0.00000000E+00  0.00000000E+00
  0.00000000E+00  0.00000000E+00  0.00000000E+00
  0.00000000E+00  0.00000000E+00  0.00000000E+00
  0.00000000E+00  0.00000000E+00  0.00000000E+00
  0.00000000E+00  0.00000000E+00  0.00000000E+00
  0.00000000E+00  0.00000000E+00  0.00000000E+00
  0.00000000E+00  0.00000000E+00  0.00000000E+00
  0.00000000E+00  0.00000000E+00  0.00000000E+00
  0.00000000E+00  0.00000000E+00  0.00000000E+00
  0.00000000E+00  0.00000000E+00  0.00000000E+00
  0.00000000E+00  0.00000000E+00  0.00000000E+00
  0.00000000E+00  0.00000000E+00  0.00000000E+00
  0.00000000E+00  0.00000000E+00  0.00000000E+00
  0.00000000E+00  0.00000000E+00  0.00000000E+00
  0.00000000E+00  0.00000000E+00  0.00000000E+00
  0.00000000E+00  0.00000000E+00  0.00000000E+00
