Li6 Nb6 O18
1.0
   2.6114950056247714   -4.5232420334544745    0.0000000000000000
   2.6114950056247714    4.5232420334544745    0.0000000000000000
   0.0000000000000000    0.0000000000000000   14.1292418141591725
Li Nb O
6 6 18
direct
   0.6666666666666666    0.3333333333333333    0.0505013333333334 T T T
   0.0000000000000000    0.0000000000000000    0.2171680000000000 T T T
   0.3333333333333333    0.6666666666666666    0.3838346666666667 T T T
   0.6666666666666666    0.3333333333333333    0.5505013333333333 T T T
   0.0000000000000000    0.0000000000000000    0.7171680000000000 T T T
   0.3333333333333333    0.6666666666666666    0.8838346666666667 T T T
   0.6666666666666666    0.3333333333333333    0.3325643333333334 T T T
   0.3333333333333333    0.6666666666666667    0.1658976666666667 T T T
   0.3333333333333333    0.6666666666666666    0.6658976666666667 T T T
   0.0000000000000000    0.0000000000000000    0.4992310000000000 T T T
   0.0000000000000000    0.0000000000000000    0.9992310000000000 T T T
   0.6666666666666666    0.3333333333333335    0.8325643333333334 T T T
   0.6203676666666667    0.9900513333333334    0.2700003333333333 T T T
   0.0099486666666666    0.6303163333333333    0.2700003333333333 T T T
   0.3696836666666667    0.3796323333333333    0.2700003333333333 T T T
   0.0363503333333335    0.3233846666666667    0.1033336666666667 T T T
   0.6766153333333332    0.7129656666666666    0.1033336666666667 T T T
   0.2870343333333332    0.9636496666666665    0.1033336666666667 T T T
   0.2870343333333332    0.3233846666666667    0.6033336666666667 T T T
   0.6766153333333332    0.9636496666666665    0.6033336666666667 T T T
   0.0363503333333335    0.7129656666666666    0.6033336666666667 T T T
   0.7030170000000001    0.6567179999999999    0.4366670000000000 T T T
   0.3432819999999999    0.0462989999999999    0.4366670000000000 T T T
   0.9537009999999998    0.2969829999999998    0.4366670000000000 T T T
   0.9537009999999999    0.6567180000000001    0.9366669999999999 T T T
   0.3432819999999999    0.2969830000000000    0.9366669999999999 T T T
   0.7030170000000000    0.0462989999999999    0.9366669999999999 T T T
   0.3696836666666668    0.9900513333333333    0.7700003333333333 T T T
   0.0099486666666666    0.3796323333333333    0.7700003333333333 T T T
   0.6203676666666664    0.6303163333333330    0.7700003333333333 T T T
