header                                  
   2.84000000000000     
     0.9932531568122334   -0.0000000000000000   -0.0000000000000000
    -0.0000000000000000    0.9932531568122334    0.0000000000000000
    -0.0000000000000000    0.0000000000000000    0.9932531568122334
   Fe
     2
Direct
 -0.0000000000000000 -0.0000000000000000 -0.0000000000000000
  0.5000000000000000  0.5000000000000000  0.5000000000000000
 
  0.00000000E+00  0.00000000E+00  0.00000000E+00
  0.00000000E+00  0.00000000E+00  0.00000000E+00
