Cl2 molecule in a box                   
   1.00000000000000     
    10.0999999999999996    0.0000000000000000    0.0000000000000000
     0.0000000000000000   10.3000000000000007    0.0000000000000000
     0.0000000000000000    0.0000000000000000   10.5000000000000000
   Cl
     2
Selective dynamics
Direct
  0.0000000000000000  0.0000000000000000  0.0003367855279081   F   F   T
  0.0000000000000000  0.0000000000000000  0.1901394049482817   F   F   T
 
  0.00000000E+00  0.00000000E+00  0.00000000E+00
  0.00000000E+00  0.00000000E+00  0.00000000E+00
