header                                  
   1.00000000000000     
     5.6399999999999997    0.0000000000000000    0.0000000000000000
     0.0000000000000000    5.6399999999999997    0.0000000000000000
     0.0000000000000000    0.0000000000000000   15.0000000000000000
   Fe   Cl
    12     2
Selective dynamics
Direct
  0.0000000000000000  0.0000000000000000  0.0000000000000000   F   F   F
  0.5000000000000000  0.0000000000000000  0.0000000000000000   F   F   F
  0.0000000000000000  0.5000000000000000  0.0000000000000000   F   F   F
  0.5000000000000000  0.5000000000000000  0.0000000000000000   F   F   F
  0.2500000000000000  0.2500000000000000  0.0940000000000012   F   F   F
  0.7500000000000000  0.2500000000000000  0.0940000000000012   F   F   F
  0.2500000000000000  0.7500000000000000  0.0940000000000012   F   F   F
  0.7500000000000000  0.7500000000000000  0.0940000000000012   F   F   F
  0.0000000000000000 -0.0004482695343564  0.1964031441973893   T   T   T
  0.5000000000000000  0.0166915692375070  0.1892574209889148   T   T   T
  0.0000000000000000  0.5017494411866443  0.1961527295791064   T   T   T
  0.5000000000000000  0.4835562436516559  0.1893123729446467   T   T   T
  0.0000000000000000  0.0054908075731838  0.3424134059423327   T   T   T
  0.0000000000000000  0.5053702962424806  0.3420890785603566   T   T   T
 
  0.00000000E+00  0.00000000E+00  0.00000000E+00
  0.00000000E+00  0.00000000E+00  0.00000000E+00
  0.00000000E+00  0.00000000E+00  0.00000000E+00
  0.00000000E+00  0.00000000E+00  0.00000000E+00
  0.00000000E+00  0.00000000E+00  0.00000000E+00
  0.00000000E+00  0.00000000E+00  0.00000000E+00
  0.00000000E+00  0.00000000E+00  0.00000000E+00
  0.00000000E+00  0.00000000E+00  0.00000000E+00
  0.00000000E+00  0.00000000E+00  0.00000000E+00
  0.00000000E+00  0.00000000E+00  0.00000000E+00
  0.00000000E+00  0.00000000E+00  0.00000000E+00
  0.00000000E+00  0.00000000E+00  0.00000000E+00
  0.00000000E+00  0.00000000E+00  0.00000000E+00
  0.00000000E+00  0.00000000E+00  0.00000000E+00
