Li4                                     
   1.00000000000000     
     4.3325088204522579    0.0000000000000000    0.0000000000000003
     0.0000000000000007    4.3325088204522579    0.0000000000000003
     0.0000000000000000    0.0000000000000000    4.3325088204522579
   Li
     4
Direct
  0.0000000000000000 -0.0000000000000000  0.0000000000000000
 -0.0000000000000000  0.5000000000000000  0.5000000000000000
  0.5000000000000000  0.0000000000000000  0.5000000000000000
  0.5000000000000000  0.5000000000000000 -0.0000000000000000
 
  0.00000000E+00  0.00000000E+00  0.00000000E+00
  0.00000000E+00  0.00000000E+00  0.00000000E+00
  0.00000000E+00  0.00000000E+00  0.00000000E+00
  0.00000000E+00  0.00000000E+00  0.00000000E+00
