Li4
1.0
   4.3198900000000000    0.0000000000000000    0.0000000000000003
   0.0000000000000007    4.3198900000000000    0.0000000000000003
   0.0000000000000000    0.0000000000000000    4.3198900000000000
Li
4
direct
   0.0000000000000000    0.0000000000000000    0.0000000000000000 Li
   0.0000000000000000    0.5000000000000000    0.5000000000000000 Li
   0.5000000000000000    0.0000000000000000    0.5000000000000000 Li
   0.5000000000000000    0.5000000000000000    0.0000000000000000 Li
