Diamond_Primitive Cell
1.613
        2.5268502235         0.0000000000         0.0000000000
        1.2634251118         2.1883164851         0.0000000000
        1.2634251118         0.7294388284         2.0631645680
    C
    2
Direct
     0.500000000         0.500000000         0.500000000
     0.750000000         0.750000000         0.750000000