Ge8
1.0
   5.7628620000000010    0.0000000000000000    0.0000000000000004
   0.0000000000000009    5.7628620000000010    0.0000000000000004
   0.0000000000000000    0.0000000000000000    5.7628620000000010
Ge
8
direct
   0.5000000000000000    0.0000000000000000    0.5000000000000000 Ge
   0.2500000000000000    0.2500000000000000    0.2500000000000000 Ge
   0.5000000000000000    0.5000000000000000    0.0000000000000000 Ge
   0.2500000000000000    0.7500000000000000    0.7500000000000000 Ge
   0.0000000000000000    0.0000000000000000    0.0000000000000000 Ge
   0.7500000000000000    0.2500000000000000    0.7500000000000000 Ge
   0.0000000000000000    0.5000000000000000    0.5000000000000000 Ge
   0.7500000000000000    0.7500000000000000    0.2500000000000000 Ge
