O2 molecule in a box                    
   1.00000000000000     
    10.0999999999999996    0.0000000000000000    0.0000000000000000
     0.0000000000000000   10.3000000000000007    0.0000000000000000
     0.0000000000000000    0.0000000000000000   10.5000000000000000
   O 
     2
Selective dynamics
Direct
  0.0000000000000000  0.0000000000000000 -0.1197757425120745   F   F   T
  0.0000000000000000  0.0000000000000000  0.3102519329882642   F   F   T
 
  0.00000000E+00  0.00000000E+00  0.00000000E+00
  0.00000000E+00  0.00000000E+00  0.00000000E+00
